12° run output:
{
    "Function": "ClusterA300.tsp",
    "Problem dimension": [
        168,
        191,
        297,
        172,
        52,
        212,
        296,
        141,
        62,
        241,
        26,
        291,
        6,
        13,
        120,
        86,
        209,
        51,
        18,
        235,
        147,
        29,
        206,
        98,
        284,
        287,
        266,
        190,
        248,
        158,
        77,
        201,
        32,
        178,
        211,
        185,
        242,
        37,
        181,
        17,
        173,
        74,
        236,
        189,
        87,
        4,
        251,
        139,
        70,
        286,
        159,
        298,
        140,
        106,
        184,
        44,
        81,
        249,
        208,
        40,
        132,
        272,
        281,
        84,
        245,
        179,
        27,
        154,
        288,
        203,
        167,
        264,
        25,
        124,
        123,
        148,
        187,
        270,
        133,
        228,
        295,
        265,
        89,
        9,
        247,
        200,
        88,
        267,
        198,
        38,
        192,
        66,
        43,
        135,
        176,
        162,
        116,
        80,
        238,
        213,
        292,
        58,
        85,
        202,
        157,
        67,
        16,
        100,
        136,
        145,
        121,
        255,
        144,
        195,
        183,
        125,
        254,
        234,
        274,
        22,
        263,
        83,
        222,
        164,
        268,
        99,
        294,
        237,
        143,
        152,
        126,
        119,
        271,
        91,
        94,
        54,
        90,
        109,
        129,
        163,
        76,
        224,
        7,
        216,
        19,
        96,
        127,
        275,
        1,
        197,
        243,
        45,
        103,
        23,
        207,
        142,
        115,
        225,
        72,
        196,
        210,
        28,
        156,
        65,
        95,
        138,
        260,
        130,
        214,
        232,
        285,
        108,
        20,
        63,
        250,
        155,
        3,
        166,
        229,
        290,
        278,
        217,
        49,
        128,
        117,
        226,
        75,
        188,
        256,
        199,
        21,
        277,
        186,
        244,
        146,
        68,
        233,
        102,
        289,
        50,
        276,
        150,
        151,
        14,
        240,
        112,
        39,
        177,
        31,
        69,
        79,
        8,
        122,
        180,
        10,
        47,
        12,
        204,
        194,
        293,
        175,
        118,
        258,
        170,
        93,
        48,
        110,
        73,
        279,
        36,
        2,
        218,
        221,
        220,
        101,
        215,
        59,
        41,
        78,
        257,
        107,
        262,
        219,
        239,
        171,
        246,
        131,
        105,
        182,
        97,
        56,
        149,
        15,
        35,
        34,
        165,
        282,
        160,
        137,
        61,
        269,
        57,
        33,
        60,
        227,
        134,
        259,
        299,
        0,
        111,
        64,
        114,
        71,
        223,
        92,
        273,
        280,
        169,
        252,
        55,
        42,
        24,
        153,
        261,
        82,
        53,
        231,
        205,
        113,
        46,
        5,
        11,
        174,
        253,
        104,
        230,
        30,
        193,
        283,
        161
    ],
    "Global Optimum": 0,
    "Algorithm": "Genetic algorithm",
    "Parameters": {
        "population": 30,
        "offspring": 30,
        "mutation probability": 0.0033333333333333335,
        "crossover probability": 0.9
    },
    "Fitness": 290446,
    "Solution": [
        168,
        191,
        297,
        172,
        52,
        212,
        296,
        141,
        62,
        241,
        26,
        291,
        6,
        13,
        120,
        86,
        209,
        51,
        18,
        235,
        147,
        29,
        206,
        98,
        284,
        287,
        266,
        190,
        248,
        158,
        77,
        201,
        32,
        178,
        211,
        185,
        242,
        37,
        181,
        17,
        173,
        74,
        236,
        189,
        87,
        4,
        251,
        139,
        70,
        286,
        159,
        298,
        140,
        106,
        184,
        44,
        81,
        249,
        208,
        40,
        132,
        272,
        281,
        84,
        245,
        179,
        27,
        154,
        288,
        203,
        167,
        264,
        25,
        124,
        123,
        148,
        187,
        270,
        133,
        228,
        295,
        265,
        89,
        9,
        247,
        200,
        88,
        267,
        198,
        38,
        192,
        66,
        43,
        135,
        176,
        162,
        116,
        80,
        238,
        213,
        292,
        58,
        85,
        202,
        157,
        67,
        16,
        100,
        136,
        145,
        121,
        255,
        144,
        195,
        183,
        125,
        254,
        234,
        274,
        22,
        263,
        83,
        222,
        164,
        268,
        99,
        294,
        237,
        143,
        152,
        126,
        119,
        271,
        91,
        94,
        54,
        90,
        109,
        129,
        163,
        76,
        224,
        7,
        216,
        19,
        96,
        127,
        275,
        1,
        197,
        243,
        45,
        103,
        23,
        207,
        142,
        115,
        225,
        72,
        196,
        210,
        28,
        156,
        65,
        95,
        138,
        260,
        130,
        214,
        232,
        285,
        108,
        20,
        63,
        250,
        155,
        3,
        166,
        229,
        290,
        278,
        217,
        49,
        128,
        117,
        226,
        75,
        188,
        256,
        199,
        21,
        277,
        186,
        244,
        146,
        68,
        233,
        102,
        289,
        50,
        276,
        150,
        151,
        14,
        240,
        112,
        39,
        177,
        31,
        69,
        79,
        8,
        122,
        180,
        10,
        47,
        12,
        204,
        194,
        293,
        175,
        118,
        258,
        170,
        93,
        48,
        110,
        73,
        279,
        36,
        2,
        218,
        221,
        220,
        101,
        215,
        59,
        41,
        78,
        257,
        107,
        262,
        219,
        239,
        171,
        246,
        131,
        105,
        182,
        97,
        56,
        149,
        15,
        35,
        34,
        165,
        282,
        160,
        137,
        61,
        269,
        57,
        33,
        60,
        227,
        134,
        259,
        299,
        0,
        111,
        64,
        114,
        71,
        223,
        92,
        273,
        280,
        169,
        252,
        55,
        42,
        24,
        153,
        261,
        82,
        53,
        231,
        205,
        113,
        46,
        5,
        11,
        174,
        253,
        104,
        230,
        30,
        193,
        283,
        161
    ],
    "Nb of functions evaluations": 200010,
    "Computational time in seconds": 341.32987928390503,
    "Stopping criterion in evaluations": 200000
}